Instance name : lrc107
Authors       : Geir Hasle, Oddvar Kloster
Date          : 18.02.2003 15:12:15
Reference     : Chapter in G. Hasle, K-A Lie, E. Quak (eds): Geometric Modelling, Numerical Simulation, and Optimization. ISBN 978-3-540-68782-5, Springer 2007.
Solution
Route  1 : 31 29 27 28 26 30 32 34 33 101
Route  2 : 11 12 14 47 17 16 15 13 9 10
Route  3 : 65 83 52 86 74 105 57 24 22 66
Route  4 : 82 99 87 59 75 97 58 77
Route  5 : 69 98 88 53 78 73 79 60 70 68
Route  6 : 64 19 25 23 21 18 48 49 20 56 91 102
Route  7 : 2 6 7 103 8 5 3 1 45 46 4 100 55 104
Route  8 : 41 38 39 42 44 43 40 37 35 36
Route  9 : 72 71 93 94 67 50 96 54
Route  10 : 92 95 62 84 85 63 51 76 89 80
Route  11 : 61 81 106 90
